row=9;
column=9;
Board=[|0,0,0,0,0,0,0,5,0|0,0,9,0,4,0,1,0,2|0,0,0,0,0,5,9,0,0|0,0,5,0,1,0,7,9,4|1,0,0,2,0,4,5,0,8|0,2,6,0,0,0,0,0,0|0,0,2,7,0,0,0,0,0|9,7,3,6,0,0,0,0,0|5,0,0,0,9,0,0,0,0|];
Region=[|1,1,2,2,2,2,3,3,3|1,1,1,2,2,2,3,3,3|1,1,1,1,2,2,3,3,3|4,4,4,5,5,6,6,6,6|4,4,4,5,5,5,6,6,6|4,4,5,5,5,5,9,6,6|4,7,7,8,8,8,9,9,9|7,7,7,7,8,8,8,9,9|7,7,7,8,8,8,9,9,9|];
horizontal=[|0,0,0,0,0,0,1,1|1,0,0,1,0,0,0,0|0,0,0,0,1,0,0,0|0,1,0,0,1,0,0,0|0,0,0,1,1,1,1,0|0,0,1,0,0,1,0,0|0,0,0,0,0,0,0,0|0,0,0,0,0,1,0,1|0,0,0,0,0,0,1,0|];
vertical=[|1,0,0,0,0,1,0,0,0|0,0,0,0,0,0,0,1,1|1,0,1,0,0,0,0,0,1|0,0,0,0,0,0,0,0,0|0,0,1,0,0,0,0,0,0|0,0,0,0,0,0,0,0,0|1,0,1,1,0,0,0,0,0|0,0,0,0,1,0,1,0,0|];
